id: 382
name: nemsemm1
group: meszaros/misc
method: 2

Gurobi 7.0.2 (linux64, Matlab) logging started Mon Mar 26 17:04:06 2018


Gurobi 7.0.2 (linux64) logging started Mon Mar 26 17:04:06 2018

Optimize a model with 3945 rows, 71413 columns and 1050047 nonzeros
Coefficient statistics:
  Matrix range     [1e-05, 4e+03]
  Objective range  [1e-05, 1e+05]
  Bounds range     [1e-04, 5e+04]
  RHS range        [8e-02, 2e+04]
Presolve removed 1116 rows and 35361 columns
Presolve time: 0.15s
Presolved: 2829 rows, 36052 columns, 495916 nonzeros

Ordering time: 0.00s

Barrier statistics:
 Dense cols : 50
 AA' NZ     : 5.674e+04
 Factor NZ  : 8.027e+04 (roughly 16 MBytes of memory)
 Factor Ops : 2.835e+06 (less than 1 second per iteration)
 Threads    : 4

                  Objective                Residual
Iter       Primal          Dual         Primal    Dual     Compl     Time
   0   2.80644834e+10 -2.52498163e+07  7.59e+05 3.29e-13  7.67e+06     0s
   1   8.02678942e+09 -1.94855457e+07  1.86e+05 1.01e+03  1.97e+06     0s
   2   2.34619217e+09 -3.24328650e+07  4.02e+04 2.26e+02  4.52e+05     0s
   3   3.91820558e+08 -3.25374502e+07  1.87e+03 1.93e+01  2.94e+04     0s
   4   4.02163602e+07 -1.67109430e+07  1.64e+02 1.35e+00  2.93e+03     0s
   5   1.31075928e+07 -9.66612006e+06  4.82e+01 3.70e-01  9.67e+02     0s
   6   6.43618494e+06 -6.32472607e+06  2.14e+01 1.83e-01  4.74e+02     0s
   7   2.25364167e+06 -2.75548223e+06  5.48e+00 2.34e-02  1.54e+02     0s
   8   1.68577265e+06 -1.79705130e+06  3.81e+00 8.13e-03  1.03e+02     0s
   9   1.24777917e+06 -5.91001652e+05  2.38e+00 2.86e-03  5.26e+01     0s
  10   8.40229886e+05 -6.59317794e+04  9.50e-01 1.18e-03  2.44e+01     0s
  11   7.27269659e+05  1.11241281e+05  5.41e-01 8.02e-04  1.61e+01     0s
  12   6.86892882e+05  2.14366003e+05  3.98e-01 6.09e-04  1.22e+01     0s
  13   6.46160165e+05  2.97771581e+05  2.68e-01 4.52e-04  8.90e+00     0s
  14   6.07950906e+05  3.59558989e+05  1.66e-01 3.34e-04  6.28e+00     0s
  15   5.89206097e+05  4.32610649e+05  1.23e-01 1.87e-04  3.93e+00     0s
  16   5.59128992e+05  4.56797890e+05  6.14e-02 1.25e-04  2.55e+00     0s
  17   5.48988107e+05  4.78611708e+05  4.48e-02 7.63e-05  1.75e+00     0s
  18   5.41775714e+05  4.91568763e+05  3.36e-02 4.69e-05  1.24e+00     0s
  19   5.40754541e+05  4.93525120e+05  3.21e-02 4.34e-05  1.17e+00     0s
  20   5.39132213e+05  4.98364343e+05  2.98e-02 3.19e-05  1.01e+00     0s
  21   5.26811233e+05  5.02823781e+05  1.26e-02 2.18e-05  5.91e-01     0s
  22   5.21389643e+05  5.06904348e+05  6.70e-03 1.21e-05  3.57e-01     0s
  23   5.18743684e+05  5.08943598e+05  4.22e-03 8.05e-06  2.41e-01     1s
  24   5.16956020e+05  5.10170316e+05  2.75e-03 5.48e-06  1.67e-01     1s
  25   5.16124265e+05  5.10875589e+05  2.09e-03 4.10e-06  1.29e-01     1s
  26   5.15553903e+05  5.11285615e+05  1.65e-03 3.28e-06  1.05e-01     1s
  27   5.14923539e+05  5.11833745e+05  1.19e-03 2.19e-06  7.60e-02     1s
  28   5.14022106e+05  5.12367436e+05  5.68e-04 1.08e-06  4.07e-02     1s
  29   5.13626438e+05  5.12541511e+05  3.29e-04 7.44e-07  2.67e-02     1s
  30   5.13500438e+05  5.12720552e+05  2.59e-04 4.08e-07  1.92e-02     1s
  31   5.13305896e+05  5.12790299e+05  1.58e-04 2.78e-07  1.27e-02     1s
  32   5.13173777e+05  5.12849301e+05  9.30e-05 1.73e-07  7.99e-03     1s
  33   5.13075993e+05  5.12912772e+05  4.76e-05 6.05e-08  4.02e-03     1s
  34   5.13004911e+05  5.12943557e+05  1.64e-05 6.42e-09  1.51e-03     1s
  35   5.12974954e+05  5.12955067e+05  4.96e-06 1.82e-12  4.90e-04     1s
  36   5.12966780e+05  5.12957717e+05  2.29e-06 1.82e-12  2.23e-04     1s
  37   5.12962575e+05  5.12959052e+05  9.04e-07 1.82e-12  8.67e-05     1s
  38   5.12960584e+05  5.12959349e+05  2.91e-07 1.82e-12  3.04e-05     1s
  39   5.12959867e+05  5.12959546e+05  6.94e-08 1.82e-12  7.90e-06     1s
  40   5.12959626e+05  5.12959599e+05  4.53e-09 1.56e-10  6.52e-07     1s
  41   5.12959602e+05  5.12959601e+05  1.76e-10 3.07e-11  3.97e-08     1s
  42   5.12959601e+05  5.12959601e+05  7.87e-11 2.36e-11  6.89e-10     1s

Barrier solved model in 42 iterations and 0.73 seconds
Optimal objective 5.12959601e+05

Crossover log...

       0 DPushes remaining with DInf 3.8188140e-11                 1s

      92 PPushes remaining with PInf 0.0000000e+00                 1s
       0 PPushes remaining with PInf 0.0000000e+00                 1s

  Push phase complete: Pinf 0.0000000e+00, Dinf 3.8859713e-11      1s

Iteration    Objective       Primal Inf.    Dual Inf.      Time
     237    5.1295960e+05   0.000000e+00   0.000000e+00      1s
     237    5.1295960e+05   0.000000e+00   0.000000e+00      1s

Solved in 237 iterations and 0.78 seconds
Optimal objective  5.129596008e+05
status: OPTIMAL
